qe/outputs/qe/cbrdelay_obs_newl/T=6,eliminate=[I_0,I_1,I_2,I_3,I_4,I_5,L_4,L_5,C,B,lhs=L_3],pl=1.smt2
; benchmark generated from python API
(set-info :status unknown)
(declare-fun S_0 () Real)
(declare-fun S_2 () Real)
(declare-fun L_3 () Real)
(declare-fun A_4 () Real)
(declare-fun S_5 () Real)
(declare-fun L_0 () Real)
(declare-fun A_0 () Real)
(declare-fun S_3 () Real)
(declare-fun S_4 () Real)
(declare-fun S_1 () Real)
(declare-fun A_1 () Real)
(declare-fun L_1 () Real)
(declare-fun L_2 () Real)
(declare-fun A_2 () Real)
(declare-fun A_3 () Real)
(declare-fun A_5 () Real)
(assert
 (let (($x39 (>= L_0 0.0)))
 (let (($x22925 (<= (+ S_5 (* (- 1.0) A_4) L_3 (* (- (/ 1.0 2.0)) S_3) (* (/ 1.0 2.0) S_0)) 0.0)))
 (let (($x26483 (<= (+ S_5 (* (- (/ 1.0 2.0)) S_4) (* (- 1.0) A_4) L_3 (* (/ 1.0 2.0) S_1)) 0.0)))
 (let (($x26421 (<= (+ S_5 (* (- (/ 1.0 3.0)) S_4) (* (- 1.0) A_4) L_3 (* (/ 1.0 3.0) S_0)) 0.0)))
 (let ((?x404 (* (- 1.0) S_1)))
 (let ((?x2043 (* 5.0 A_1)))
 (let ((?x2017 (* (- 5.0) L_1)))
 (let ((?x1705 (* 5.0 L_2)))
 (let ((?x1704 (* (- 5.0) A_2)))
 (let (($x66 (= L_2 L_1)))
 (let (($x38661 (<= 0.0 (+ S_5 (* (- 1.0) A_4) L_3))))
 (let (($x9768 (<= (+ (* (- 1.0) S_5) (* (- 1.0) A_0) L_0 (* 2.0 S_2)) 0.0)))
 (let ((?x1313 (* (- 1.0) S_0)))
 (let ((?x2075 (* 6.0 A_1)))
 (let ((?x2074 (* (- 6.0) L_1)))
 (let ((?x2073 (* 6.0 L_2)))
 (let ((?x2072 (* (- 6.0) A_2)))
 (let (($x2956 (<= (+ (* (- (/ 1.0 3.0)) S_5) (* (- 1.0) A_0) L_0 (* (/ 4.0 3.0) S_1)) 0.0)))
 (let (($x63039 (or $x66 (<= (+ ?x1704 ?x1705 S_5 (* (- 1.0) A_0) L_0 ?x2017 ?x2043) 0.0))))
 (let (($x18687 (<= (+ (* (- 4.0) S_5) (* 5.0 S_3) ?x1313) 0.0)))
 (let (($x29586 (<= 0.0 (+ (* (/ 3.0 2.0) S_4) (* (- 1.0) A_4) (* (- (/ 1.0 2.0)) S_1) L_3))))
 (let (($x12847 (<= (+ (* (- 3.0) S_5) (* (- 1.0) A_0) L_0 (* 4.0 S_3)) 0.0)))
 (let (($x17867 (<= (+ (* (- 2.0) S_5) (* 3.0 S_3) (* (- 1.0) S_2)) 0.0)))
 (let ((?x1681 (* 4.0 L_3)))
 (let ((?x1658 (* (- 4.0) A_3)))
 (let ((?x1668 (* (- 4.0) L_2)))
 (let ((?x1657 (* 4.0 A_2)))
 (let (($x76 (= L_3 L_2)))
 (let ((?x1684 (* 2.0 L_3)))
 (let ((?x1695 (* (- 2.0) A_3)))
 (let ((?x1195 (* (- 2.0) L_2)))
 (let ((?x1192 (* 2.0 A_2)))
 (let ((?x1169 (* (- 2.0) A_1)))
 (let ((?x1191 (* 2.0 L_1)))
 (let ((?x424 (* (- 1.0) S_4)))
 (let (($x56 (= L_1 L_0)))
 (let ((?x313 (* (- 1.0) L_3)))
 (let ((?x918 (+ L_2 ?x313)))
 (let (($x32665 (<= 0.0 ?x918)))
 (let ((?x1701 (* 5.0 L_3)))
 (let ((?x1673 (* (- 5.0) A_3)))
 (let ((?x1689 (* (- 5.0) L_2)))
 (let ((?x1671 (* 5.0 A_2)))
 (let ((?x410 (* (- 1.0) S_2)))
 (let ((?x2016 (* 4.0 A_1)))
 (let ((?x2004 (* (- 4.0) L_1)))
 (let ((?x1331 (* 4.0 L_2)))
 (let ((?x1330 (* (- 4.0) A_2)))
 (let ((?x1197 (* 3.0 A_1)))
 (let ((?x1241 (* (- 3.0) L_1)))
 (let ((?x1201 (* 3.0 L_2)))
 (let ((?x1245 (* (- 3.0) A_2)))
 (let (($x22237 (<= (+ (* (- 1.0) L_1) A_1 (* (- 1.0) A_3) S_3 ?x410 L_3) 0.0)))
 (let (($x63362 (or $x66 (<= (+ ?x1245 ?x1201 S_5 ?x1241 ?x1197 (* (- 1.0) S_3)) 0.0))))
 (let ((?x2496 (* (- 2.0) S_3)))
 (let ((?x1186 (* 2.0 A_1)))
 (let ((?x1097 (* (- 2.0) L_1)))
 (let ((?x2687 (* 2.0 S_4)))
 (let ((?x6969 (* (/ 5.0 2.0) L_3)))
 (let ((?x7693 (* (- (/ 5.0 2.0)) A_3)))
 (let ((?x14323 (* (/ 5.0 2.0) A_1)))
 (let ((?x15206 (* (- (/ 5.0 2.0)) L_1)))
 (let ((?x1714 (* 6.0 L_3)))
 (let ((?x1713 (* (- 6.0) A_3)))
 (let ((?x1712 (* (- 6.0) L_2)))
 (let ((?x1710 (* 6.0 A_2)))
 (let (($x14760 (<= (+ S_5 ?x1241 ?x1197 (* (- 3.0) A_3) ?x1313 (* 3.0 L_3)) 0.0)))
 (let ((?x6933 (* (/ 3.0 2.0) L_3)))
 (let ((?x6720 (* (- (/ 3.0 2.0)) A_3)))
 (let ((?x13631 (* (/ 3.0 2.0) A_1)))
 (let ((?x11043 (* (- (/ 3.0 2.0)) L_1)))
 (let ((?x1690 (* 3.0 L_3)))
 (let ((?x1497 (* (- 2.0) S_1)))
 (let ((?x2784 (* 2.0 S_3)))
 (let ((?x1664 (* (- 3.0) A_3)))
 (let ((?x1680 (* (- 2.0) L_3)))
 (let ((?x2580 (* 2.0 S_2)))
 (let ((?x1691 (* 2.0 A_3)))
 (let ((?x2684 (* (- 2.0) S_5)))
 (let ((?x279 (* (- 1.0) L_1)))
 (let ((?x932 (+ L_0 ?x279)))
 (let (($x599 (<= 0.0 ?x932)))
 (let ((?x1685 (* (- 4.0) L_3)))
 (let ((?x2592 (* 2.0 S_0)))
 (let ((?x1667 (* 4.0 A_3)))
 (let ((?x2039 (* (- 4.0) A_1)))
 (let ((?x1997 (* 4.0 L_1)))
 (let (($x63415 (or $x66 (<= (+ ?x1245 ?x1201 (* (- 1.0) A_0) L_0 ?x1241 ?x1197 S_3) 0.0))))
 (let (($x2268 (<= (+ (* (- 2.0) A_2) (* 2.0 L_2) ?x1097 ?x1186 S_1 ?x1313) 0.0)))
 (let (($x62842 (or $x56 (<= (+ ?x1192 ?x1195 ?x1191 ?x1169 (* (- 1.0) S_3) S_0) 0.0))))
 (let ((?x1325 (* (- 3.0) A_1)))
 (let ((?x1324 (* 3.0 L_1)))
 (let ((?x1323 (* (- 3.0) L_2)))
 (let ((?x1322 (* 3.0 A_2)))
 (let (($x62633 (or $x599 (<= (+ ?x2684 L_1 (* (- 1.0) A_1) A_3 ?x2784 ?x313) 0.0))))
 (let (($x22211 (<= (+ (* (- 2.0) A_0) (* 2.0 L_0) ?x1241 ?x1197 ?x1664 ?x2784 ?x1690) 0.0)))
 (let ((?x1662 (* (- 3.0) L_3)))
 (let ((?x2671 (* 2.0 S_1)))
 (let ((?x1646 (* 3.0 A_3)))
 (let (($x9529 (<= (+ ?x2687 (* (- 2.0) A_0) (* 2.0 L_0) ?x2004 ?x2016 ?x1658 ?x1681) 0.0)))
 (let (($x62701 (or $x76 (<= (+ S_5 ?x424 ?x279 A_1 (* (- 1.0) A_3) L_3) 0.0))))
 (let (($x5184 (<= (+ A_2 (* (- 1.0) A_1) (* (- (/ 1.0 2.0)) S_3) (* (/ 1.0 2.0) S_0)) 0.0)))
 (let (($x765 (not $x66)))
 (let (($x2096 (<= (+ (* (- 2.0) A_2) (* 2.0 L_2) ?x1097 ?x1186 S_3 ?x410) 0.0)))
 (let (($x62467 (or $x56 $x76 $x765 (<= (+ ?x1192 ?x279 (* (- 1.0) A_1) (* (- 1.0) A_3) L_3) 0.0))))
 (let ((?x417 (* (- 1.0) S_3)))
 (let ((?x437 (* (- 1.0) A_1)))
 (let ((?x296 (* (- 1.0) L_2)))
 (let (($x7234 (<= (+ (* (- 2.0) A_2) (* 2.0 L_2) ?x1691 ?x417 S_0 ?x1680) 0.0)))
 (let ((?x15200 (+ ?x424 (* (/ 3.0 2.0) L_1) (* (- (/ 3.0 2.0)) A_1) (* (/ 3.0 2.0) A_3) S_0 (* (- (/ 3.0 2.0)) L_3))))
 (let ((?x6961 (* (- (/ 1.0 2.0)) L_3)))
 (let ((?x6785 (* (/ 1.0 2.0) A_3)))
 (let ((?x13538 (* (- (/ 1.0 2.0)) A_1)))
 (let ((?x9947 (* (/ 1.0 2.0) L_1)))
 (let ((?x2698 (* 2.0 L_0)))
 (let ((?x2697 (* (- 2.0) A_0)))
 (let ((?x2797 (* 2.0 S_5)))
 (let (($x1551 (not $x56)))
 (let (($x63454 (or $x76 $x1551 (<= (+ (* (- 1.0) A_0) A_1 (* (- 1.0) A_3) S_2 L_3) 0.0))))
 (let (($x9917 (<= (+ ?x424 (* (- (/ 1.0 2.0)) A_0) (* (/ 1.0 2.0) L_0) (* (/ 3.0 2.0) S_2)) 0.0)))
 (let ((?x1345 (* (- 1.0) A_0)))
 (let ((?x1220 (* 2.0 L_2)))
 (let ((?x1159 (* (- 2.0) A_2)))
 (let (($x61676 (or $x76 (<= (+ ?x279 A_1 (* (- 1.0) A_3) S_1 ?x1313 L_3) 0.0))))
 (let (($x63364 (or $x76 (<= (+ ?x2697 ?x2698 ?x279 A_1 (* (- 1.0) A_3) ?x2671 L_3) 0.0))))
 (let (($x34094 (not $x32665)))
 (let (($x60980 (or $x66 (<= 0.0 (+ ?x1192 ?x296 L_1 ?x437 (* (- 1.0) A_3))) $x34094)))
 (let (($x62231 (or $x66 $x1551 (<= (+ ?x1159 ?x1220 (* (- 1.0) L_0) A_1 A_3 ?x313) 0.0))))
 (let (($x3139 (<= (+ ?x296 (* (- (/ 2.0 3.0)) S_4) L_1 ?x437 A_3 (* (/ 2.0 3.0) S_0)) 0.0)))
 (let (($x62403 (or $x66 (<= (+ (* (- 1.0) A_2) L_2 A_3 ?x410 S_0 ?x313) 0.0))))
 (let (($x40301 (or $x66 (<= (+ (* (- 1.0) A_2) L_2 ?x424 A_3 S_2 ?x313) 0.0))))
 (let (($x63453 (or $x66 (<= (+ (* (- 1.0) A_2) L_2 A_3 ?x417 S_1 ?x313) 0.0))))
 (let (($x61894 (or $x76 (<= (+ A_2 ?x296 ?x1345 L_0 (* (- 1.0) A_3) S_1 L_3) 0.0))))
 (let (($x42253 (or $x66 (<= (+ (* (- 1.0) A_2) L_2 ?x1345 L_0 ?x279 A_1 S_1) 0.0))))
 (let (($x44197 (or $x66 $x76 $x599 (= (+ ?x1192 ?x1195 L_1 ?x437 (* (- 1.0) A_3) L_3) 0.0))))
 (let (($x128 (>= S_1 S_0)))
 (let (($x131 (>= S_2 S_1)))
 (let (($x134 (>= S_3 S_2)))
 (let (($x137 (>= S_4 S_3)))
 (let (($x143 (>= A_2 A_1)))
 (let (($x144 (>= A_3 A_2)))
 (let (($x145 (>= A_4 A_3)))
 (let (($x146 (>= A_5 A_4)))
 (and (<= (+ A_2 ?x296) S_5) (<= (+ A_0 (* (- 1.0) L_0)) S_4) $x146 $x145 $x144 $x143 $x137 $x134 $x131 $x128 (not (<= (+ A_1 ?x279) S_4)) (or (not $x599) $x56) (or $x66 (not (<= 0.0 (+ ?x296 L_1)))) (<= (+ (* (- 1.0) A_2) L_2 ?x279 A_1) 0.0) (or $x66 (<= (+ (* (- 1.0) A_2) L_2 ?x279 A_1) (- 5.0))) $x44197 (or $x56 (<= (+ A_2 ?x296 L_1 ?x437 ?x410 S_0) 0.0)) (<= (+ ?x1345 L_0 ?x417 ?x2671) 0.0) (<= (+ ?x417 S_1) (- 5.0)) (or $x76 $x34094) $x42253 $x61894 $x63453 (or $x76 (<= (+ A_2 ?x296 (* (- 1.0) A_3) L_3) (- 5.0))) (<= (+ ?x2496 (* 3.0 S_1) ?x1313) 0.0) (or $x76 (<= (+ ?x279 A_1 (* (- 1.0) A_3) L_3) (- 10.0))) $x40301 (or $x56 (<= (+ ?x424 L_1 ?x437 A_3 S_1 ?x313) 0.0)) (or $x66 (<= (+ ?x1245 ?x1201 ?x1241 ?x1197 S_2 ?x1313) 0.0)) (or $x66 (<= (+ ?x1159 ?x1220 ?x1097 ?x1186 S_2 ?x404) 0.0)) (or $x66 (<= (+ ?x1159 ?x1220 S_5 ?x424 ?x1097 ?x1186) 0.0)) (<= (+ (* (- (/ 1.0 2.0)) S_3) (* (/ 1.0 2.0) S_0)) (- 5.0)) (or $x56 (<= (+ ?x296 L_1 ?x437 A_3 ?x417 S_0) 0.0) $x34094) $x62403 (<= (+ S_5 (* (- (/ 5.0 2.0)) S_3) (* (/ 3.0 2.0) S_0)) 0.0) (or $x76 (<= (+ ?x1322 ?x1323 ?x1345 L_0 ?x1664 S_3 ?x1690) 0.0)) (or $x76 (<= (+ ?x1192 ?x1195 ?x1345 L_0 ?x1695 S_2 ?x1684) 0.0)) (or $x76 (<= (+ ?x1192 ?x1195 ?x1695 S_3 ?x410 ?x1684) 0.0)) (or $x66 (<= (+ ?x1159 ?x1220 ?x424 ?x1691 S_1 ?x1680) 0.0)) (or $x66 (<= (+ ?x1245 ?x1201 ?x424 ?x1646 S_0 ?x1662) 0.0)) (or $x56 $x3139 $x34094) (or $x76 (<= (+ ?x1322 ?x1323 ?x1664 S_3 ?x404 ?x1690) 0.0)) (or $x76 (<= (+ ?x1671 ?x1689 S_5 ?x1345 L_0 ?x1673 ?x1701) 0.0)) (or $x76 (<= (+ ?x1322 ?x1323 S_5 ?x1664 ?x417 ?x1690) 0.0)) $x62231 $x60980 $x63364 $x61676 (<= (+ (* (- (/ 1.0 2.0)) S_4) ?x1345 L_0 (* (/ 3.0 2.0) S_1)) 0.0) (<= (+ ?x424 ?x2671 ?x1313) 0.0) (or $x76 (<= (+ ?x1192 ?x1195 ?x1695 S_1 ?x1313 ?x1684) 0.0)) (or $x66 (<= (+ ?x1159 ?x1220 ?x1345 L_0 ?x1097 ?x1186 S_2) 0.0)) $x9917 (or $x56 (<= (+ A_2 ?x296 ?x424 L_1 ?x437 S_2) 0.0)) (<= (+ (* (/ 1.0 3.0) S_5) ?x424 (* (/ 2.0 3.0) S_2)) 0.0) $x63454 (or $x76 (<= (+ ?x2697 ?x2698 ?x1097 ?x1186 ?x1695 ?x2580 ?x1684) 0.0)) (or $x76 (<= (+ ?x2797 ?x2017 ?x2043 ?x1673 ?x1497 ?x1701) 0.0)) (or $x76 (<= (+ ?x2797 ?x2697 ?x2698 ?x2017 ?x2043 ?x1673 ?x1701) 0.0)) (or $x56 (<= (+ ?x424 ?x9947 ?x13538 ?x6785 S_2 ?x6961) 0.0)) (or $x56 (<= (+ ?x9947 ?x13538 ?x6785 ?x410 S_0 ?x6961) 0.0)) (or $x76 (<= (+ S_5 ?x1097 ?x1186 ?x1695 ?x410 ?x1684) 0.0)) (or $x56 (<= ?x15200 0.0)) (or $x56 (<= (+ ?x1191 ?x1169 ?x1691 ?x2496 ?x2592 ?x1680) 0.0)) (or $x76 (<= (+ ?x2797 ?x1241 ?x1197 ?x1664 ?x2496 ?x1690) 0.0)) (or $x76 (<= (+ ?x1192 ?x1195 S_5 ?x424 ?x1695 ?x1684) 0.0)) (or $x56 (<= (+ L_1 ?x437 A_3 ?x2496 ?x2671 ?x313) 0.0)) (or $x66 $x7234) (or $x56 (<= (+ A_2 ?x296 L_1 ?x437 ?x417 S_1) 0.0)) (or $x76 (<= (+ ?x1657 ?x1668 S_5 ?x1658 ?x410 ?x1681) 0.0)) (<= (+ S_5 (* (- 2.0) S_4) S_1) 0.0) $x62467 (or $x66 $x2096) (or $x56 $x765 $x5184) $x62701 (<= (+ S_5 (* (- 1.0) A_5) L_3) 0.0) (or $x76 (<= (+ S_4 ?x11043 ?x13631 ?x6720 ?x410 ?x6933) 0.0)) (or $x76 $x9529) (or $x599 (<= (+ ?x2684 ?x1324 ?x1325 ?x1646 ?x2671 ?x1662) 0.0)) (or $x76 $x22211) $x62633 (or $x76 $x17867) (or $x76 $x12847) (<= (+ (* (- 3.0) S_4) (* 4.0 S_2) ?x1313) 0.0) (or $x76 (<= (+ ?x1322 ?x1323 ?x1664 S_2 ?x1313 ?x1690) 0.0)) (<= (+ ?x424 S_2) (- 5.0)) (or $x56 (<= (+ ?x1322 ?x1323 ?x424 ?x1324 ?x1325 S_0) 0.0)) (<= (+ (* (/ 3.0 5.0) S_5) ?x424 (* (/ 2.0 5.0) S_0)) 0.0) (<= (+ (* (- 2.0) S_4) (* 3.0 S_2) ?x404) 0.0) $x62842 (or $x66 $x2268) $x63415 (or $x599 (<= (+ ?x2684 ?x1997 ?x2039 ?x1667 ?x2592 ?x1685) 0.0)) (or $x599 (<= (+ ?x2684 ?x1191 ?x1169 ?x1691 ?x2580 ?x1680) 0.0)) (or $x76 (<= (+ ?x1097 ?x1186 ?x1695 ?x2580 ?x1497 ?x1684) 0.0)) (or $x76 (<= (+ ?x1241 ?x1197 ?x1664 ?x2784 ?x1497 ?x1690) 0.0)) (or $x76 (<= (+ ?x11043 ?x13631 ?x6720 S_2 ?x1313 ?x6933) 0.0)) (or $x76 $x14760) (or $x76 (<= (+ ?x1097 ?x1186 ?x1695 S_3 ?x1313 ?x1684) 0.0)) (or (<= (+ ?x1710 ?x1712 S_5 ?x1713 ?x1313 ?x1714) 0.0) $x32665) (or $x76 (<= (+ ?x2687 ?x2004 ?x2016 ?x1658 ?x1497 ?x1681) 0.0)) (or $x76 (<= (+ S_4 ?x15206 ?x14323 ?x7693 ?x1313 ?x6969) 0.0)) (or $x76 (<= (+ ?x2687 ?x1097 ?x1186 ?x1695 ?x2496 ?x1684) 0.0)) (<= (+ (* (/ 1.0 3.0) S_4) ?x417 (* (/ 2.0 3.0) S_1)) 0.0) $x63362 (or $x76 $x22237) (or $x66 (<= (+ ?x1245 ?x1201 ?x1241 ?x1197 S_3 ?x404) 0.0)) (or $x66 (<= (+ ?x1330 ?x1331 ?x2004 ?x2016 S_3 ?x1313) 0.0)) (<= (+ (* (- (/ 1.0 2.0)) S_4) (* (/ 1.0 2.0) S_1)) (- 5.0)) (or (<= (+ (* (- 3.0) S_5) (* 4.0 S_3) ?x404) 0.0) $x38661) (or $x66 (<= (+ ?x1330 ?x1331 S_5 ?x2004 ?x2016 ?x410) 0.0)) (or (<= (+ ?x1671 ?x1689 S_5 ?x1673 ?x404 ?x1701) 0.0) $x32665) (or $x56 (<= (+ ?x1192 ?x1195 ?x424 ?x1191 ?x1169 S_1) 0.0)) (or $x76 (<= (+ ?x1192 ?x1195 ?x1695 S_2 ?x404 ?x1684) 0.0)) (or $x76 (<= (+ ?x1657 ?x1668 ?x1658 S_3 ?x1313 ?x1681) 0.0)) (or (<= (+ (* (- (/ 1.0 3.0)) S_5) (* (/ 1.0 3.0) S_1)) (- 5.0)) $x38661) (<= (+ (* (- (/ 1.0 3.0)) S_4) (* (/ 1.0 3.0) S_0)) (- 5.0)) (or $x38661 (<= (+ (* (- 1.0) S_5) S_3) (- 5.0))) (or $x38661 (<= (+ (* (- (/ 1.0 4.0)) S_5) (* (/ 1.0 4.0) S_0)) (- 5.0))) (or $x17867 $x38661) (or $x12847 $x38661) (or $x29586 $x18687) (<= (+ S_5 (* (- 4.0) S_3) (* 3.0 S_1)) 0.0) $x63039 (or (<= (+ (* (- (/ 2.0 3.0)) S_5) (* (/ 5.0 3.0) S_1) ?x1313) 0.0) $x38661) (or $x18687 $x38661) (or (<= (+ (* (- (/ 3.0 2.0)) S_5) (* (/ 5.0 2.0) S_2) ?x1313) 0.0) $x38661) (or $x38661 (<= (+ (* (- (/ 1.0 2.0)) S_5) (* (/ 1.0 2.0) S_2)) (- 5.0))) (or $x2956 $x38661) (or $x66 (<= (+ ?x2072 ?x2073 S_5 ?x2074 ?x2075 ?x1313) 0.0)) (or $x9768 $x38661) (or $x38661 (<= (+ (* (- 1.0) S_5) ?x2580 ?x404) 0.0)) (or $x66 (<= (+ ?x1704 ?x1705 S_5 ?x2017 ?x2043 ?x404) 0.0)) (<= (+ S_5 (* (- 1.0) A_4) L_3 ?x417 S_1) 0.0) $x26421 $x26483 (<= (+ S_5 ?x424 (* (- 1.0) A_4) L_3 S_2) 0.0) (<= (+ (* (/ 1.0 3.0) S_3) ?x410 (* (/ 2.0 3.0) S_0)) 0.0) $x22925 (<= (+ (* (/ 1.0 4.0) S_4) ?x410 (* (/ 3.0 4.0) S_0)) 0.0) (<= (+ (* (/ 1.0 5.0) S_5) ?x410 (* (/ 4.0 5.0) S_0)) 0.0) (<= (+ (* (/ 1.0 2.0) S_4) ?x417 (* (/ 1.0 2.0) S_0)) 0.0) $x39 (<= (+ ?x1345 L_0 S_0) 0.0) (<= (+ ?x410 S_0) (- 5.0)) (<= (+ S_5 (* (- 1.0) A_4) L_3 ?x410 S_0) 0.0))))))))))))))))))))))))))))))))))))))))))))))))))))))))))))))))))))))))))))))))))))))))))))))))))))))))))))))))))))))))))))))))))))))))))))))))))
(check-sat)
